
Gurobi 11.0.3 (linux64) logging started Wed Nov 12 20:06:37 2025

Set parameter LogFile to value "./log/train/CA_500_600_threads_0/CA_3.lp.log"
Set parameter TimeLimit to value 3600
Gurobi Optimizer version 11.0.3 build v11.0.3rc0 (linux64 - "Ubuntu 22.04.5 LTS")

CPU model: AMD Ryzen 9 9900X 12-Core Processor, instruction set [SSE2|AVX|AVX2|AVX512]
Thread count: 12 physical cores, 24 logical processors, using up to 24 threads

Optimize a model with 598 rows, 600 columns and 2789 nonzeros
Model fingerprint: 0x639ddbb0
Variable types: 0 continuous, 600 integer (600 binary)
Coefficient statistics:
  Matrix range     [1e+00, 1e+00]
  Objective range  [5e-01, 9e+02]
  Bounds range     [1e+00, 1e+00]
  RHS range        [1e+00, 1e+00]
Found heuristic solution: objective 18409.933251
Presolve removed 53 rows and 88 columns
Presolve time: 0.01s
Presolved: 545 rows, 512 columns, 2669 nonzeros
Found heuristic solution: objective 23395.868945
Variable types: 0 continuous, 512 integer (512 binary)
Found heuristic solution: objective 24650.483892

Root relaxation: objective 3.018527e+04, 1299 iterations, 0.03 seconds (0.07 work units)

    Nodes    |    Current Node    |     Objective Bounds      |     Work
 Expl Unexpl |  Obj  Depth IntInf | Incumbent    BestBd   Gap | It/Node Time

     0     0 30185.2714    0  297 24650.4839 30185.2714  22.5%     -    0s
H    0     0                    26167.053666 30185.2714  15.4%     -    0s
H    0     0                    26194.473400 30185.2714  15.2%     -    0s
H    0     0                    26293.577378 30185.2714  14.8%     -    0s
     0     0 30048.6385    0  306 26293.5774 30048.6385  14.3%     -    0s
     0     0 29760.0711    0  309 26293.5774 29760.0711  13.2%     -    0s
H    0     0                    26394.114782 29760.0711  12.8%     -    0s
     0     0 29760.0711    0  305 26394.1148 29760.0711  12.8%     -    0s
     0     0 29714.8558    0  312 26394.1148 29714.8558  12.6%     -    0s
     0     0 29714.8558    0  312 26394.1148 29714.8558  12.6%     -    0s
H    0     0                    26704.027672 29714.8558  11.3%     -    0s
     0     2 29714.8558    0  312 26704.0277 29714.8558  11.3%     -    0s
H   27    40                    26728.553428 29649.1043  10.9%   281    0s
H   28    40                    26809.670751 29649.1043  10.6%   279    0s
H   29    40                    26917.849650 29646.8848  10.1%   273    0s
H   64    85                    26941.438001 29646.8848  10.0%   229    0s
H   68    85                    27021.798143 29646.8848  9.71%   226    0s
H   71    85                    27085.019669 29646.8848  9.46%   224    0s
H   84   105                    27098.571845 29646.8848  9.40%   215    0s
H   87   105                    27405.571555 29646.8848  8.18%   214    0s
H  100   105                    27557.828979 29646.8848  7.58%   203    0s
H  133   150                    28062.171631 29646.8848  5.65%   180    0s
H  189   143                    28063.621255 29646.8848  5.64%   151    0s

Cutting planes:
  Gomory: 3
  Clique: 25
  Zero half: 2
  RLT: 1
  BQP: 4

Explored 11831 nodes (1080000 simplex iterations) in 3.39 seconds (10.89 work units)
Thread count was 24 (of 24 available processors)

Solution count 10: 28063.6 28062.2 27557.8 ... 26809.7

Optimal solution found (tolerance 1.00e-04)
Best objective 2.806362125491e+04, best bound 2.806362125491e+04, gap 0.0000%

User-callback calls 24554, time in user-callback 0.01 sec
